(set-info :smt-lib-version 2.6)
(set-logic QF_S)
(set-info :source |
Generated by: Murphy Berzish, Mitja Kulczynski, Federico Mora, Florin Manea, Joel Day, Dirk Nowotka, Vijay Ganesh, Zhengyang Lu
Generated on: 2020-10-01
Description: Translated from a collection of real-world regex queries, AutomataArk, collected by Loris D’Antoni and Fang Wang: https://github.com/lorisdanto/automatark
Application: Evaluate solvers on real-world regex queries
Target solver: Z3str3RE, CVC4, OSTRICH, Z3seq, Z3str3, Z3-Trau
Publications: Berzish, M., Kulczynski, M., Mora, F., Manea, F., Day, J. D., Nowotka, D., & Ganesh, V. (2021, July). An SMT solver for regular expressions and linear arithmetic over string length. In CAV 2021.
|)
(set-info :license "https://creativecommons.org/licenses/by/4.0/")
(set-info :category "industrial")
(set-info :status sat)

(declare-const X String)
(assert (not (str.in_re X (re.++ (str.to_re "http") (re.opt (str.to_re "s")) (str.to_re "://twitter.com/") (re.opt (str.to_re "#!/")) ((_ re.loop 1 15) (re.union (re.range "a" "z") (re.range "A" "Z") (re.range "0" "9"))) (re.opt (str.to_re "/")) (str.to_re "\u{a}")))))
(assert (not (str.in_re X (re.union (re.++ ((_ re.loop 2 2) (re.range "0" "9")) (re.opt (str.to_re "-")) (re.union (str.to_re "D") (str.to_re "F")) ((_ re.loop 2 2) (re.range "A" "Z")) (re.opt (str.to_re "-")) ((_ re.loop 1 1) (re.range "0" "9"))) (re.++ (re.union (str.to_re "D") (str.to_re "F")) ((_ re.loop 1 1) (re.range "A" "Z")) (re.opt (str.to_re "-")) ((_ re.loop 3 3) (re.range "0" "9")) (re.opt (str.to_re "-")) ((_ re.loop 1 1) (re.range "A" "Z"))) (re.++ (re.union (str.to_re "D") (str.to_re "F")) (re.opt (str.to_re "-")) ((_ re.loop 3 3) (re.range "0" "9")) (re.opt (str.to_re "-")) ((_ re.loop 2 2) (re.range "A" "Z"))) (re.++ (re.union (str.to_re "D") (str.to_re "F")) ((_ re.loop 2 2) (re.range "A" "Z")) (re.opt (str.to_re "-")) ((_ re.loop 2 2) (re.range "0" "9")) (re.opt (str.to_re "-")) ((_ re.loop 1 1) (re.range "A" "Z")) (str.to_re "\u{a}"))))))
(assert (not (str.in_re X (re.++ (re.union (re.++ (re.union (str.to_re "Ctrl+Alt+Shift+Cmd+") (str.to_re "Ctrl+Shift+Cmd+") (str.to_re "Ctrl+Alt+Shift+") (str.to_re "Ctrl+Alt+Cmd+") (str.to_re "Alt+Shift+Cmd+") (str.to_re "Shift+Cmd+") (str.to_re "Ctrl+Shift+") (str.to_re "Ctrl+Cmd+") (str.to_re "Ctrl+Alt+") (str.to_re "Alt+Shift+") (str.to_re "Alt+Cmd+") (str.to_re "Cmd+") (str.to_re "Alt+")) (re.union (re.++ (str.to_re "F1") (re.range "0" "2")) (re.++ (str.to_re "F") (re.range "1" "9")) (re.range "A" "Z") (re.range "a" "z") (re.range "0" "9") (str.to_re "-") (str.to_re "=") (str.to_re "[") (str.to_re "]") (str.to_re "\u{5c}") (str.to_re ";") (str.to_re "'") (str.to_re ",") (str.to_re ".") (str.to_re "/"))) (re.++ (re.opt (str.to_re "Shift+")) (str.to_re "F") (re.union (re.++ (str.to_re "1") (re.range "0" "2")) (re.range "1" "9")))) (str.to_re "\u{a}")))))
(assert (not (str.in_re X (re.++ (str.to_re "www.altnet.com\u{1b}") (re.* (re.union (str.to_re "\u{a}") (str.to_re "\u{d}"))) (str.to_re "Host:\u{a}")))))
(assert (not (str.in_re X (re.++ (str.to_re "/icmp|") (re.+ (re.range "0" "9")) (str.to_re "|") (re.+ (re.range "0" "9")) (str.to_re "|") (re.+ (re.union (re.range "a" "z") (re.range "0" "9"))) (str.to_re ".") ((_ re.loop 2 3) (re.range "a" "z")) (str.to_re "|") (re.+ (re.union (re.range "a" "z") (re.range "0" "9"))) (str.to_re "|/\u{a}")))))
(check-sat)

(exit)
